0 1352
1 1327
2 1300
3 1282
4 1274
5 1265
6 1261
7 1256
8 1249
9 1245
10 1240
11 1231
12 1225
13 1223
14 1214
15 1211
16 1203
17 1203
18 1201
19 1197
20 1193
21 1191
22 1185
23 1179
24 1166
25 1155
26 1145
27 1135
28 1124
29 1119
30 1110
31 1103
32 1095
33 1078
34 1071
35 1060
36 1046
37 1033
38 1019
39 1012
40 1003
41 985
42 979
43 967
44 955
45 946
46 938
47 929
48 920
49 907
50 900
51 892
52 886
53 880
54 876
55 868
56 866
57 856
58 853
59 846
60 840
61 834
62 830
63 825
64 817
65 814
66 812
67 807
68 802
69 797
70 794
71 790
72 787
73 784
74 781
75 778
76 773
77 771
78 769
79 767
80 764
81 761
82 759
83 756
84 755
85 751
86 750
87 747
88 745
89 743
90 739
91 738
92 736
93 734
94 732
95 731
96 730
97 727
98 725
99 724
100 722
101 721
102 719
103 717
104 716
105 714
106 712
107 711
108 709
109 708
110 706
111 705
112 704
113 703
114 701
115 700
116 699
117 697
118 695
119 693
120 691
121 691
122 688
123 687
124 687
125 685
126 684
127 683
128 682
129 680
130 679
131 678
132 676
133 676
134 675
135 674
136 673
137 672
138 671
139 670
140 669
141 669
142 667
143 666
144 665
145 664
146 663
147 661
148 660
149 659
150 658
151 656
152 655
153 655
154 654
155 653
156 652
157 652
158 650
159 649
160 648
161 647
162 645
163 645
164 644
165 643
166 643
167 642
168 642
169 641
170 640
171 640
172 638
173 638
174 637
175 636
176 635
177 634
178 633
179 632
180 631
181 631
182 630
183 629
184 628
185 627
186 627
187 627
188 625
189 625
190 624
191 623
192 622
193 622
194 622
195 621
196 621
197 620
198 619
199 618
200 618
201 617
202 616
203 616
204 615
205 614
206 614
207 613
208 613
209 612
210 612
211 611
212 610
213 610
214 610
215 609
216 609
217 608
218 607
219 606
220 605
221 605
222 604
223 604
224 604
225 603
226 603
227 602
228 601
229 601
230 600
231 599
232 599
233 599
234 598
235 597
236 597
237 597
238 597
239 596
240 596
241 595
242 595
243 595
244 594
245 594
246 593
247 593
248 592
249 591
